Optimal - objective value -12.00000000
      0 x_0                      1                       0
      9 x_9                      1         1.23026315789474
     10 x_10                     1                       0
     16 x_16                     1                  0.6875
     44 x_44                     1                       0
     45 x_45                     1         2.54934210526316
     58 x_58                     1                       0
     59 x_59                     1                       0
     60 x_60                     1                       0
     65 x_65                     1         0.638157894736842
     74 x_74                     1                       0
     76 x_76                     1         1.88486842105263
